c 1=W7_0 2=W7_1 3=W7_2 4=W7_3 5=qw_0 6=qw_1 7=qw_2 8=qw_3 9=W1_0 10=W1_1 11=W1_2 12=W1_3 13=a_0 14=a_1 15=a_2 16=a_3 17=W6_0 18=W6_1 19=W6_2 20=W6_3 21=W5_0 22=W5_1 23=W5_2 24=W5_3 25=x_0 26=x_1 27=x_2 28=x_3 29=W4_0 30=W4_1 31=W4_2 32=W4_3 33=W0_0 34=W0_1 35=W0_2 36=W0_3 37=W3_0 38=W3_1 39=W3_2 40=W3_3 41=W2_0 42=W2_1 43=W2_2 44=W2_3 
p cnf 44 144
1 2 3 4 0
-1 -2 0
-1 -3 0
-1 -4 0
-2 -3 0
-2 -4 0
-3 -4 0
5 6 7 8 0
-5 -6 0
-5 -7 0
-5 -8 0
-6 -7 0
-6 -8 0
-7 -8 0
-5 3 0
-6 4 0
-7 1 0
-8 2 0
9 10 11 12 0
-9 -10 0
-9 -11 0
-9 -12 0
-10 -11 0
-10 -12 0
-11 -12 0
13 14 15 16 0
-13 -14 0
-13 -15 0
-13 -16 0
-14 -15 0
-14 -16 0
-15 -16 0
-1 -13 9 0
-1 -14 10 0
-1 -15 11 0
-1 -16 12 0
-2 -13 10 0
-2 -14 10 0
-2 -15 11 0
-2 -16 12 0
-3 -13 11 0
-3 -14 11 0
-3 -15 11 0
-3 -16 12 0
-4 -13 12 0
-4 -14 12 0
-4 -15 12 0
-4 -16 12 0
17 18 19 20 0
-17 -18 0
-17 -19 0
-17 -20 0
-18 -19 0
-18 -20 0
-19 -20 0
19 0
21 22 23 24 0
-21 -22 0
-21 -23 0
-21 -24 0
-22 -23 0
-22 -24 0
-23 -24 0
25 26 27 28 0
-25 -26 0
-25 -27 0
-25 -28 0
-26 -27 0
-26 -28 0
-27 -28 0
-17 -25 21 0
-17 -26 22 0
-17 -27 23 0
-17 -28 24 0
-18 -25 22 0
-18 -26 23 0
-18 -27 24 0
-18 -28 21 0
-19 -25 23 0
-19 -26 24 0
-19 -27 21 0
-19 -28 22 0
-20 -25 24 0
-20 -26 21 0
-20 -27 22 0
-20 -28 23 0
29 30 31 32 0
-29 -30 0
-29 -31 0
-29 -32 0
-30 -31 0
-30 -32 0
-31 -32 0
-21 30 0
-22 31 0
-23 32 0
-24 29 0
-29 10 0
-30 11 0
-31 12 0
-32 9 0
33 34 35 36 0
-33 -34 0
-33 -35 0
-33 -36 0
-34 -35 0
-34 -36 0
-35 -36 0
36 0
37 38 39 40 0
-37 -38 0
-37 -39 0
-37 -40 0
-38 -39 0
-38 -40 0
-39 -40 0
38 0
41 42 43 44 0
-41 -42 0
-41 -43 0
-41 -44 0
-42 -43 0
-42 -44 0
-43 -44 0
-37 43 0
-38 44 0
-39 41 0
-40 42 0
-25 -41 33 0
-25 -42 34 0
-25 -43 35 0
-25 -44 36 0
-26 -41 34 0
-26 -42 35 0
-26 -43 36 0
-26 -44 33 0
-27 -41 35 0
-27 -42 36 0
-27 -43 33 0
-27 -44 34 0
-28 -41 36 0
-28 -42 33 0
-28 -43 34 0
-28 -44 35 0
